ID bID Day Srt Len
1  11  0   0   255
2  1   0   315 45
3  6   0   360 90
4  2   0   450 45
5  13  0   495 25
6  4   0   535 45
7  15  1   0   240
8  5   1   300 60
9  8   1   360 45
10 18  1   405 120
11 16  1   525 30
12 3   1   565 15
13 17  2   0   45
14 9   2   50  190
15 9   2   300 50
16 10  2   350 15
17 7   2   365 235
18 7   3   0   95
19 12  3   95  120
20 14  3   215 25
21 14  3   300 35
